NAME: tsp45_17
COMMENT: 45-tsp problem (Padberg/Rinaldi)
TYPE: TSP
DIMENSION: 45
EDGE_WEIGHT_TYPE : EUC_2D
NODE_COORD_SECTION
1 10 19
2 3 11
3 40 10
4 26 27
5 13 1
6 29 25
7 9 30
8 10 32
9 27 32
10 18 31
11 38 11
12 29 20
13 14 21
14 13 39
15 6 11
16 30 1
17 26 14
18 24 15
19 19 18
20 6 30
21 6 20
22 3 36
23 4 2
24 1 3
25 16 39
26 25 29
27 29 35
28 11 26
29 33 30
30 12 5
31 22 23
32 33 17
33 26 31
34 37 15
35 38 17
36 14 33
37 1 27
38 7 12
39 40 17
40 38 36
41 19 10
42 9 21
43 35 31
44 1 4
45 21 32
